
Gurobi 10.0.1 (linux64) logging started Sun Nov 26 18:03:21 2023

Set parameter LogFile to value "ArtificialInstance/ExperimentV2/S4T5K3/BaDo/gurobi91.txt"
Gurobi Optimizer version 10.0.1 build v10.0.1rc0 (linux64)

CPU model: AMD EPYC 7H12 64-Core Processor, instruction set [SSE2|AVX|AVX2]
Thread count: 128 physical cores, 128 logical processors, using up to 32 threads

Academic license 656792 - for non-commercial use only - registered to b.___@student.vu.nl
Optimize a model with 1260 rows, 2000 columns and 6720 nonzeros
Model fingerprint: 0x39f3fec4
Variable types: 0 continuous, 2000 integer (2000 binary)
Coefficient statistics:
  Matrix range     [1e+00, 1e+00]
  Objective range  [2e+00, 2e+01]
  Bounds range     [1e+00, 1e+00]
  RHS range        [1e+00, 1e+00]
Found heuristic solution: objective 593.1683980
Presolve time: 0.01s
Presolved: 1260 rows, 2000 columns, 6720 nonzeros
Variable types: 0 continuous, 2000 integer (2000 binary)

Root relaxation: objective 4.199306e+01, 893 iterations, 0.01 seconds (0.01 work units)

    Nodes    |    Current Node    |     Objective Bounds      |     Work
 Expl Unexpl |  Obj  Depth IntInf | Incumbent    BestBd   Gap | It/Node Time

     0     0   41.99306    0  234  593.16840   41.99306  92.9%     -    0s
H    0     0                     200.1268970   41.99306  79.0%     -    0s
H    0     0                     129.5044067   41.99306  67.6%     -    0s
H    0     0                      77.9629787   52.22141  33.0%     -    0s
     0     0   52.22141    0  315   77.96298   52.22141  33.0%     -    0s
H    0     0                      77.0274803   52.22141  32.2%     -    0s
H    0     0                      70.3738030   55.76605  20.8%     -    0s
     0     0   55.76605    0  265   70.37380   55.76605  20.8%     -    0s
     0     0   55.76605    0  265   70.37380   55.76605  20.8%     -    0s
H    0     0                      70.2630962   55.76605  20.6%     -    0s
H    0     0                      68.9847639   55.76605  19.2%     -    0s
     0     0   57.51522    0  338   68.98476   57.51522  16.6%     -    0s
H    0     0                      68.9674053   57.51522  16.6%     -    0s
     0     0   57.60734    0  339   68.96741   57.60734  16.5%     -    0s
     0     0   57.60801    0  329   68.96741   57.60801  16.5%     -    0s
     0     0   58.08787    0  300   68.96741   58.08787  15.8%     -    0s
     0     0   58.64024    0  393   68.96741   58.64024  15.0%     -    0s
     0     0   58.70596    0  354   68.96741   58.70596  14.9%     -    0s
     0     0   58.70596    0  360   68.96741   58.70596  14.9%     -    0s
     0     0   58.85550    0  423   68.96741   58.85550  14.7%     -    0s
     0     0   58.86614    0  418   68.96741   58.86614  14.6%     -    0s
     0     0   58.86731    0  434   68.96741   58.86731  14.6%     -    0s
     0     0   58.94246    0  402   68.96741   58.94246  14.5%     -    0s
H    0     0                      68.4382081   58.99413  13.8%     -    0s
     0     0   58.99413    0  408   68.43821   58.99413  13.8%     -    0s
     0     0   58.99520    0  414   68.43821   58.99520  13.8%     -    0s
     0     0   59.19394    0  396   68.43821   59.19394  13.5%     -    0s
H    0     0                      67.7143171   59.23618  12.5%     -    0s
H    0     0                      67.6320433   59.23618  12.4%     -    0s
     0     0   59.23618    0  400   67.63204   59.23618  12.4%     -    0s
     0     0   59.23840    0  404   67.63204   59.23840  12.4%     -    0s
     0     0   59.24960    0  435   67.63204   59.24960  12.4%     -    0s
     0     0   59.24960    0  441   67.63204   59.24960  12.4%     -    0s
     0     0   59.35402    0  400   67.63204   59.35402  12.2%     -    0s
     0     0   59.35894    0  408   67.63204   59.35894  12.2%     -    0s
     0     0   59.39594    0  390   67.63204   59.39594  12.2%     -    0s
     0     0   59.40943    0  382   67.63204   59.40943  12.2%     -    0s
     0     0   59.40943    0  396   67.63204   59.40943  12.2%     -    0s
     0     0   59.51020    0  405   67.63204   59.51020  12.0%     -    0s
     0     0   59.52143    0  401   67.63204   59.52143  12.0%     -    0s
     0     0   59.52184    0  405   67.63204   59.52184  12.0%     -    0s
     0     0   59.59358    0  406   67.63204   59.59358  11.9%     -    0s
     0     0   59.61004    0  413   67.63204   59.61004  11.9%     -    0s
     0     0   59.63142    0  422   67.63204   59.63142  11.8%     -    0s
     0     0   59.63480    0  422   67.63204   59.63480  11.8%     -    0s
     0     0   59.63485    0  433   67.63204   59.63485  11.8%     -    0s
     0     0   59.63485    0  405   67.63204   59.63485  11.8%     -    0s
     0     2   59.63485    0  405   67.63204   59.63485  11.8%     -    1s

Cutting planes:
  Gomory: 5
  MIR: 1
  GUB cover: 1
  Zero half: 122
  RLT: 46

Explored 319 nodes (29738 simplex iterations) in 1.53 seconds (0.86 work units)
Thread count was 32 (of 128 available processors)

Solution count 10: 67.632 67.7143 68.4382 ... 129.504

Optimal solution found (tolerance 1.00e-04)
Best objective 6.763204327506e+01, best bound 6.763204327506e+01, gap 0.0000%
